(set-info :smt-lib-version 2.6)
(set-logic QF_BV)
(set-info :category "crafted")
(set-info :source |Alberto Griggio <griggio@fbk.eu>. These benchmarks were used for the evaluation in the following paper: L. Haller, A. Griggio, M. Brain, D. Kroening: Deciding floating-point logic with systematic abstraction. FMCAD 2012. Real-numbered literals have been automatically translated by MathSAT|)
(set-info :status sat)
;; MathSAT API call trace ;; generated on 05/20/15 17:24:51 
(declare-fun b36 () (_ SFXP 32 16))
(declare-fun b19 () (_ SFXP 32 16))
(declare-fun b33 () (_ SFXP 32 16))
(declare-fun b24 () (_ SFXP 32 16))
(declare-fun b29 () (_ SFXP 32 16))
(declare-fun b10 () (_ SFXP 32 16))
(declare-fun b16 () (_ SFXP 32 16))
(declare-fun b12 () (_ SFXP 32 16))
(declare-fun b26 () (_ SFXP 32 16))
(define-fun _t_3 () RoundingMode roundTowardPositive)
(define-fun _t_9 () (_ SFXP 32 16) b10)
(define-fun _t_10 () (_ SFXP 32 16) b16)
(define-fun _t_11 () (_ SFXP 32 16) (sfxp.add Wrapping _t_9 _t_10))
(define-fun _t_12 () (_ SFXP 32 16) b19)
(define-fun _t_13 () Bool (sfxp.lt _t_12 _t_11))
(define-fun _t_14 () (_ SFXP 32 16) b12)
(define-fun _t_15 () Bool (sfxp.leq _t_9 _t_14))
(define-fun _t_16 () Bool (and _t_13 _t_15))
(define-fun _t_17 () (_ SFXP 32 16) b26)
(define-fun _t_18 () Bool (sfxp.leq _t_9 _t_17))
(define-fun _t_19 () Bool (and _t_16 _t_18))
(define-fun _t_20 () (_ SFXP 32 16) b29)
(define-fun _t_21 () Bool (sfxp.leq _t_20 _t_9))
(define-fun _t_22 () Bool (and _t_19 _t_21))
(define-fun _t_23 () (_ SFXP 32 16) b24)
(define-fun _t_24 () (_ SFXP 32 16) b33)
(define-fun _t_25 () Bool (sfxp.leq _t_23 _t_24))
(define-fun _t_26 () Bool (and _t_22 _t_25))
(define-fun _t_27 () (_ SFXP 32 16) b36)
(define-fun _t_28 () Bool (sfxp.leq _t_27 _t_23))
(define-fun _t_29 () Bool (and _t_26 _t_28))
(assert _t_29)
(check-sat)
(exit)
